# Objective value = 3.0357721240927771e+02
x[0] 1
x[1] 0
x[2] 0
x[3] 0
x[4] 1.0000003329128966e+00
x[5] 1
x[6] 1
x[7] 0
x[8] 0
x[9] 0
x[10] 1
x[11] 0
x[12] 0
x[13] 1
x[14] 0
x[15] 0
x[16] 0
x[17] 1
x[18] 0
x[19] 1
x[20] 0
x[21] 1
x[22] 0
x[23] 1
x[24] 1
x[25] 1
x[26] 1
x[27] 1
x[28] 0
x[29] 0
x[30] 1
x[31] 0
x[32] 1
x[33] 0
x[34] 1
x[35] 1
x[36] 0
x[37] 1
x[38] 1
x[39] 1
x[40] 1
x[41] 0
x[42] 0
x[43] 1
x[44] 0
x[45] 0
x[46] 1
x[47] 0
x[48] 0
x[49] 0
x[50] 0
x[51] 0
x[52] 1
x[53] 1
x[54] 1
x[55] 1
x[56] 0
x[57] 1
x[58] 1
x[59] 0
x[60] 1
x[61] 1
x[62] 1
x[63] 0
x[64] 1
x[65] 0
x[66] 1
x[67] 1
x[68] 0
x[69] 0
x[70] 1
x[71] 0
x[72] 1
x[73] 1
x[74] 0
x[75] 1
x[76] 1
x[77] 1
x[78] 1
x[79] 0
x[80] 1
x[81] 0
x[82] 1
x[83] 0
x[84] 0
x[85] 9.9999966974315591e-01
x[86] 0
x[87] 0
x[88] 1
x[89] 1
x[90] 1
x[91] 0
x[92] 0
x[93] 0
x[94] 1
x[95] 1
x[96] 1
x[97] 0
x[98] 0
x[99] 1
x[100] 0
x[101] 1
x[102] 0.99999967
x[103] 0
x[104] 1
x[105] 1
x[106] 1
x[107] 0
x[108] 0
x[109] 1
x[110] 0
x[111] 1
x[112] 1
x[113] 0
x[114] 1
x[115] 0
x[116] 0
x[117] 0
x[118] 0
x[119] 0
x[120] 0
x[121] 1
x[122] 1
x[123] 0
x[124] 1
x[125] 1
x[126] 1
x[127] 0
x[128] 1
x[129] 1
x[130] 0
x[131] 0
x[132] 0.99999967
x[133] 0
x[134] 1
x[135] 1
x[136] 0
x[137] 0
x[138] 0
x[139] 0
x[140] 0
x[141] 0
x[142] 1
x[143] 3.2741917808103711e-07
x[144] 1
x[145] 1
x[146] 1
x[147] -3.33333333379926e-07
x[148] 0
x[149] 1
x[150] 0
x[151] 0
x[152] 1
x[153] 0
x[154] 1
x[155] 0
x[156] 1
x[157] 0
x[158] 0
x[159] 0
x[160] 1
x[161] 0
x[162] 0
x[163] 1
x[164] 1
x[165] 0
x[166] 1
x[167] 0
x[168] 1
x[169] 1
x[170] 1
x[171] 1
x[172] 0
x[173] 1
x[174] 1
x[175] 0
x[176] 1
x[177] 0
x[178] 1
x[179] 0
x[180] 0
x[181] 1
x[182] 0
x[183] 0
x[184] 1
x[185] 0
x[186] 0
x[187] 0
x[188] 0
x[189] 1
x[190] 0
x[191] 0
x[192] 0
x[193] 0
x[194] 1
x[195] 1
x[196] 1
x[197] 0
x[198] 1
x[199] 1
x[200] 1
x[201] 0
x[202] 0
x[203] 0
x[204] 1
x[205] 0
x[206] 1
x[207] 1
x[208] 0
x[209] 1
x[210] 0
x[211] 1
x[212] 0
x[213] 1
x[214] 1
x[215] 0
x[216] 1
x[217] 1
x[218] 3.3285337461484558e-07
x[219] 0
x[220] 0
x[221] 0
x[222] 1
x[223] 0
x[224] 0
x[225] 0
x[226] 0
x[227] 1
x[228] 1
x[229] 1
x[230] 0
x[231] 9.9999967166666659e-01
x[232] 1
x[233] 0
x[234] 0
x[235] 0
x[236] 1
x[237] 0
x[238] 0
x[239] 0
x[240] 1
x[241] 0
x[242] 0
x[243] 1
x[244] 0
x[245] 0
x[246] 1
x[247] 0
x[248] 1
x[249] 1
x[250] 0
x[251] 3.3295869596365484e-07
x[252] 1
x[253] 0
x[254] 0
x[255] 1
x[256] 1
x[257] 1
x[258] 0
x[259] 0
x[260] 1
x[261] 0
x[262] 0
x[263] 0
x[264] 1
x[265] 0
x[266] 0
x[267] 0
x[268] 0
x[269] 0
x[270] 0
x[271] 0
x[272] 0
x[273] 0
x[274] 1
x[275] 0
x[276] 1
x[277] 0
x[278] 1
x[279] 1
x[280] 1.0000003328267466e+00
x[281] 0
x[282] 0
x[283] 0
x[284] 0
x[285] 0
x[286] 1
x[287] 1
x[288] 1
x[289] 1
x[290] 0
x[291] 1
x[292] 1.0000003329598282e+00
x[293] 0
x[294] 1
x[295] 0
x[296] 0
x[297] 0
x[298] 1
x[299] 0
x[300] 0
x[301] 0
x[302] 0
x[303] 1
x[304] 1
x[305] 1
x[306] 3.3228061811514531e-07
x[307] 1
x[308] 0
x[309] 0
x[310] 0
x[311] 0
x[312] 0
x[313] 1
x[314] 1
x[315] 1
x[316] 1
x[317] 1
x[318] 1
x[319] 1
x[320] 0
x[321] 1
x[322] 1
x[323] 1
x[324] 1
x[325] 0
x[326] 1
x[327] 0
x[328] 1
x[329] 1
x[330] 0
x[331] 1
x[332] 1
x[333] 0
x[334] 1
x[335] 1
x[336] 1
x[337] 0
x[338] 0
x[339] 0
x[340] 1
x[341] 1
x[342] 1
x[343] 1
x[344] 0
x[345] 1
x[346] 1
x[347] 1
x[348] 1
x[349] 0
x[350] 1
x[351] 0
x[352] 0
x[353] 1
x[354] 0
x[355] 1
x[356] 0
x[357] 1
x[358] 1
x[359] 1
x[360] 1
x[361] 0
x[362] 1
x[363] 0
x[364] 0
x[365] 0
x[366] 0
x[367] 0
x[368] 0
x[369] 1
x[370] 0
x[371] 0
x[372] 0
x[373] 1
x[374] 1
x[375] 0
x[376] 0
x[377] 1
x[378] 1
x[379] 0
x[380] 0
x[381] 1
x[382] 1
x[383] 1
x[384] 1
x[385] 0
x[386] 0
x[387] 1
x[388] 0
x[389] 0
x[390] 0
x[391] 0
x[392] 1
x[393] 0
x[394] 1
x[395] 0
x[396] 0
x[397] 0
x[398] 0
x[399] 1
x[400] 1
x[401] 0
x[402] 0
x[403] 0
x[404] 0
x[405] 1
x[406] 0
x[407] 1
x[408] 1
x[409] 1
x[410] 0
x[411] 0
x[412] 0
x[413] 0
x[414] 1
x[415] 1
x[416] 1
x[417] 1
x[418] 0
x[419] 0
x[420] 0
x[421] 0
x[422] 0
x[423] 1
x[424] 0
x[425] 1
x[426] 1
x[427] 1
x[428] 0
x[429] 0
x[430] 1
x[431] 1
x[432] 1
x[433] 1
x[434] 1
x[435] 1
x[436] 1
x[437] 1
x[438] 0
x[439] 0
x[440] 1
x[441] 0
x[442] 0
x[443] 0
x[444] 0
x[445] 0
x[446] 1
x[447] 1
x[448] 1
x[449] 0
x[450] 1
x[451] 1
x[452] 1
x[453] 0
x[454] 1
x[455] 1
x[456] 0
x[457] 1
x[458] 0
x[459] 1
x[460] 0
x[461] 0
x[462] 1
x[463] 0
x[464] 0
x[465] 0
x[466] 0
x[467] 0
x[468] 0
x[469] 0
x[470] 1
x[471] 1
x[472] 1
x[473] 0
x[474] 1
x[475] 0
x[476] 0
x[477] 1
x[478] 0
x[479] 1
x[480] 0
x[481] 0
x[482] 1
x[483] 1
x[484] 0
x[485] 3.3181275393418712e-07
x[486] 1
x[487] 0
x[488] 0
x[489] 0
x[490] 0
x[491] 1
x[492] 1
x[493] 1
x[494] 0
x[495] 0
x[496] 0
x[497] 0
x[498] 0
x[499] 0
x[500] 1
x[501] 0
x[502] 0
x[503] 1
x[504] 0
x[505] 0
x[506] 0
x[507] 0
x[508] 0
x[509] 1
x[510] 1
x[511] 0
x[512] 1
x[513] 0
x[514] 1
x[515] 1
x[516] 0
x[517] 1
x[518] 1
x[519] 1
x[520] 1
x[521] 0
x[522] 0
x[523] 1
x[524] 1
x[525] 0
x[526] 0
x[527] 1
x[528] 1
x[529] 1
x[530] 1
x[531] 0
x[532] 0
x[533] 0
x[534] 1
x[535] 0
x[536] 1
x[537] 0
x[538] 1
x[539] 1
x[540] 1
x[541] 0
x[542] 0
x[543] 1
x[544] 1
x[545] 1
x[546] 1
x[547] 1
x[548] 0
x[549] 1
x[550] 0
x[551] 0
x[552] 1
x[553] 1
x[554] 0
x[555] 1
x[556] 0
x[557] 1
x[558] 0
x[559] 1
x[560] 1
x[561] 0
x[562] 0
x[563] 1
x[564] 1
x[565] 1
x[566] 0
x[567] 1
x[568] 0
x[569] 0
x[570] 1
x[571] 1
x[572] 0
x[573] 1
x[574] 1
x[575] 1
x[576] 1
x[577] 1
x[578] 1
x[579] 1
x[580] 0
x[581] 1
x[582] 3.3279953886622452e-07
x[583] 0
x[584] 3.3273246142856132e-07
x[585] 0
x[586] 0
x[587] 0
x[588] 0
x[589] 0
x[590] 1
x[591] 1
x[592] 1
x[593] 1
x[594] 0
x[595] 0
x[596] 1
x[597] 1
x[598] 1
x[599] 1
x[600] 1
x[601] 1
x[602] 9.9999967037463733e-01
x[603] 1
x[604] 0
x[605] 0
x[606] 0
x[607] 1
x[608] 1
x[609] 0
x[610] 0
x[611] 1
x[612] 1
x[613] 0
x[614] 0
x[615] 0
x[616] 1
x[617] 0
x[618] 1
x[619] 0
x[620] 3.3278743598239185e-07
x[621] 0
x[622] 0
x[623] 1
x[624] 0
x[625] 0
x[626] 1
x[627] 1
x[628] 1
x[629] 1
x[630] 0
x[631] 1
x[632] 1
x[633] 1
x[634] 1
x[635] 0
x[636] 1
x[637] 1
x[638] 0
x[639] 0
x[640] 0
x[641] 0
x[642] 0
x[643] 1
x[644] 1
x[645] 1
x[646] 1
x[647] 1
x[648] 1
x[649] 0
x[650] 0
x[651] 1
x[652] 1
x[653] 1
x[654] 1
x[655] 0
x[656] 0
x[657] 0
x[658] 1
x[659] 1
x[660] 0
x[661] 0
x[662] 1
x[663] 1
x[664] 1
x[665] 1
x[666] 0
x[667] 1
x[668] 1
x[669] 1
x[670] 1
x[671] 1
x[672] 0
x[673] 1
x[674] 1
x[675] 0
x[676] 0
x[677] 0
x[678] 1
x[679] 0
x[680] 0
x[681] 0
x[682] 0
x[683] 1
x[684] 1
x[685] 0
x[686] 1
x[687] 1
x[688] 1
x[689] 1
x[690] 1
x[691] 0
x[692] 0
x[693] 1
x[694] 0
x[695] 0
x[696] 1
x[697] 1
x[698] 0
x[699] 1
x[700] 1
x[701] 0
x[702] 1
x[703] 0
x[704] 1
x[705] 1
x[706] 1
x[707] 0
x[708] 0
x[709] 1
x[710] 1
x[711] 0
x[712] 0
x[713] 0
x[714] 1
x[715] 0
x[716] 1
x[717] 1
x[718] 0
x[719] 1
x[720] 1
x[721] 0
x[722] 1
x[723] 1
x[724] 0.99999967
x[725] 0
x[726] 1
x[727] 1
x[728] 1
x[729] 0
x[730] 0
x[731] 1
x[732] 0
x[733] 0
x[734] 1
x[735] 1
x[736] 1
x[737] 0
x[738] 1
x[739] 0
x[740] 0
x[741] 0
x[742] 0
x[743] 1
x[744] 0
x[745] 1
x[746] 0
x[747] 0
x[748] 0
x[749] 3.3201292029658279e-07
x[750] 0
x[751] 1
x[752] 0
x[753] 0
x[754] 0
x[755] 0
x[756] 0
x[757] 1
x[758] 0
x[759] 1
x[760] 1
x[761] 0
x[762] 0
x[763] 1
x[764] 0
x[765] 0
x[766] 0
x[767] 0
x[768] 1
x[769] 1
x[770] 1
x[771] 1
x[772] 1
x[773] 0
x[774] 1
x[775] 0
x[776] 0
x[777] 0
x[778] 0
x[779] 0
x[780] 1
x[781] 1
x[782] 9.9999967166666659e-01
x[783] 0
x[784] 1
x[785] 1
x[786] 1
x[787] 1
x[788] 0
x[789] 0
x[790] 1
x[791] 1
x[792] 0
x[793] 0
x[794] 0
x[795] 0
x[796] 0
x[797] 1
x[798] 0
x[799] 1
x[800] 0
x[801] 1
x[802] 1
x[803] 1
x[804] 1
x[805] 0
x[806] 0
x[807] 0
x[808] 0
x[809] 0
x[810] 0
x[811] 1
x[812] 1
x[813] 0
x[814] 1
x[815] 1
x[816] 0
x[817] 0
x[818] 1
x[819] 1
x[820] 0
x[821] 1
x[822] 1
x[823] 1
x[824] 1
x[825] 0
x[826] 0
x[827] 0
x[828] 0
x[829] 0
x[830] 0
x[831] 1
x[832] 1
x[833] 0
x[834] 1
x[835] 0
x[836] 0
x[837] 0
x[838] 1
x[839] 0
x[840] 0
x[841] 0
x[842] 0
x[843] 0
x[844] 0
x[845] 0
x[846] 0
x[847] 1
x[848] 0
x[849] 9.9999967166666659e-01
x[850] 0
x[851] 1
x[852] 1
x[853] 0
x[854] 1
x[855] 0
x[856] 1
x[857] 0
x[858] 1
x[859] 1
x[860] 1
x[861] 0
x[862] 0
x[863] 0
x[864] 1
x[865] 1
x[866] 0
x[867] 1
x[868] 1
x[869] 0
x[870] 0
x[871] 0
x[872] 1
x[873] 0
x[874] 1
x[875] 1
x[876] 1.3726217709250445e-07
x[877] 1
x[878] 0
x[879] 0
x[880] 0
x[881] 1
x[882] 0
x[883] 0
x[884] 1
x[885] 1
x[886] 0
x[887] 1
x[888] 0
x[889] 0
x[890] 1
x[891] 1
x[892] 0
x[893] 0
x[894] 0
x[895] 0
x[896] 0
x[897] 1
x[898] 0
x[899] 1
x[900] 1
x[901] 1
x[902] 0
x[903] 1
x[904] 0
x[905] 0
x[906] 0
x[907] 0
x[908] 1
x[909] 1
x[910] 9.9999967047995875e-01
x[911] 0
x[912] 1
x[913] 0
x[914] 9.9999966666666662e-01
x[915] 0
x[916] 0
x[917] 0
x[918] 0
x[919] 0
x[920] 1
x[921] 1
x[922] 1
x[923] 0
x[924] 0
x[925] 0
x[926] 0
x[927] 1
x[928] 0
x[929] 0
x[930] 1
x[931] 0
x[932] 0
x[933] 0
x[934] 1
x[935] 0
x[936] 0
x[937] 0
x[938] 1
x[939] 1
x[940] 1
x[941] 1
x[942] 1
x[943] 0
x[944] 0
x[945] 0
x[946] 0
x[947] 0
x[948] 1
x[949] 0
x[950] 1
x[951] 0
x[952] 1
x[953] 1
x[954] 0
x[955] 1
x[956] 0
x[957] 1
x[958] 0
x[959] 1
x[960] 0
x[961] 1
x[962] 1
x[963] 1
x[964] 0
x[965] 1
x[966] 0
x[967] 1
x[968] 1
x[969] 0
x[970] 0
x[971] 0
x[972] 1
x[973] 1
x[974] 1
x[975] 0
x[976] 1
x[977] 1
x[978] 0
x[979] 0
x[980] 0
x[981] 1
x[982] 1
x[983] 1
x[984] 1
x[985] 1
x[986] 1
x[987] 0
x[988] 1
x[989] 0
x[990] 1
x[991] -3.2962649491945163e-07
x[992] 1
x[993] 1
x[994] 1
x[995] 1
x[996] 0
x[997] 1
x[998] 0
x[999] 1
